logs/miss/ip/miss-05-30-2.lp
\ LP format - for model browsing. Use MPS format to capture full model detail.
Minimize
  z0 + z1 + z2 + z3 + z4 + z5
Subject To
 R0: x0,1_11 + x0,1_16 + x0,1_23 + x0,1_36 + x0,1_59 - z1 <= 0
 R1: x0,2_11 + x0,2_16 + x0,2_23 + x0,2_36 + x0,2_59 - z2 <= 0
 R2: x0,3_11 + x0,3_16 + x0,3_23 + x0,3_36 + x0,3_59 - z3 <= 0
 R3: x0,4_11 + x0,4_16 + x0,4_23 + x0,4_36 + x0,4_59 - z4 <= 0
 R4: x0,5_11 + x0,5_16 + x0,5_23 + x0,5_36 + x0,5_59 - z5 <= 0
 R5: x1,2_11 + x1,2_16 + x1,2_23 + x1,2_36 + x1,2_59 - z2 <= 0
 R6: x1,3_11 + x1,3_16 + x1,3_23 + x1,3_36 + x1,3_59 - z3 <= 0
 R7: x1,4_11 + x1,4_16 + x1,4_23 + x1,4_36 + x1,4_59 - z4 <= 0
 R8: x1,5_11 + x1,5_16 + x1,5_23 + x1,5_36 + x1,5_59 - z5 <= 0
 R9: x2,3_11 + x2,3_16 + x2,3_23 + x2,3_36 + x2,3_59 - z3 <= 0
 R10: x2,4_11 + x2,4_16 + x2,4_23 + x2,4_36 + x2,4_59 - z4 <= 0
 R11: x2,5_11 + x2,5_16 + x2,5_23 + x2,5_36 + x2,5_59 - z5 <= 0
 R12: x3,4_11 + x3,4_16 + x3,4_23 + x3,4_36 + x3,4_59 - z4 <= 0
 R13: x3,5_11 + x3,5_16 + x3,5_23 + x3,5_36 + x3,5_59 - z5 <= 0
 R14: x4,5_11 + x4,5_16 + x4,5_23 + x4,5_36 + x4,5_59 - z5 <= 0
 R15: x0,1_11 + x0,2_11 + x0,3_11 + x0,4_11 + x0,5_11 + x1,2_11 + x1,3_11
   + x1,4_11 + x1,5_11 + x2,3_11 + x2,4_11 + x2,5_11 + x3,4_11 + x3,5_11
   + x4,5_11 = 1
 R16: x0,1_16 + x0,2_16 + x0,3_16 + x0,4_16 + x0,5_16 + x1,2_16 + x1,3_16
   + x1,4_16 + x1,5_16 + x2,3_16 + x2,4_16 + x2,5_16 + x3,4_16 + x3,5_16
   + x4,5_16 = 1
 R17: x0,1_23 + x0,2_23 + x0,3_23 + x0,4_23 + x0,5_23 + x1,2_23 + x1,3_23
   + x1,4_23 + x1,5_23 + x2,3_23 + x2,4_23 + x2,5_23 + x3,4_23 + x3,5_23
   + x4,5_23 = 1
 R18: x0,1_36 + x0,2_36 + x0,3_36 + x0,4_36 + x0,5_36 + x1,2_36 + x1,3_36
   + x1,4_36 + x1,5_36 + x2,3_36 + x2,4_36 + x2,5_36 + x3,4_36 + x3,5_36
   + x4,5_36 = 1
 R19: x0,1_59 + x0,2_59 + x0,3_59 + x0,4_59 + x0,5_59 + x1,2_59 + x1,3_59
   + x1,4_59 + x1,5_59 + x2,3_59 + x2,4_59 + x2,5_59 + x3,4_59 + x3,5_59
   + x4,5_59 = 1
 R20: p0 - p1 <= -1
 R21: - 11 x0,1_11 - p0 + p1 >= 0
 R22: 145 x0,1_11 - p0 + p1 <= 156
 R23: - 16 x0,1_16 - p0 + p1 >= 0
 R24: 145 x0,1_16 - p0 + p1 <= 161
 R25: - 23 x0,1_23 - p0 + p1 >= 0
 R26: 145 x0,1_23 - p0 + p1 <= 168
 R27: - 36 x0,1_36 - p0 + p1 >= 0
 R28: 145 x0,1_36 - p0 + p1 <= 181
 R29: - 59 x0,1_59 - p0 + p1 >= 0
 R30: 145 x0,1_59 - p0 + p1 <= 204
 R31: p0 - p2 <= -1
 R32: - 11 x0,2_11 - p0 + p2 >= 0
 R33: 145 x0,2_11 - p0 + p2 <= 156
 R34: - 16 x0,2_16 - p0 + p2 >= 0
 R35: 145 x0,2_16 - p0 + p2 <= 161
 R36: - 23 x0,2_23 - p0 + p2 >= 0
 R37: 145 x0,2_23 - p0 + p2 <= 168
 R38: - 36 x0,2_36 - p0 + p2 >= 0
 R39: 145 x0,2_36 - p0 + p2 <= 181
 R40: - 59 x0,2_59 - p0 + p2 >= 0
 R41: 145 x0,2_59 - p0 + p2 <= 204
 R42: p0 - p3 <= -1
 R43: - 11 x0,3_11 - p0 + p3 >= 0
 R44: 145 x0,3_11 - p0 + p3 <= 156
 R45: - 16 x0,3_16 - p0 + p3 >= 0
 R46: 145 x0,3_16 - p0 + p3 <= 161
 R47: - 23 x0,3_23 - p0 + p3 >= 0
 R48: 145 x0,3_23 - p0 + p3 <= 168
 R49: - 36 x0,3_36 - p0 + p3 >= 0
 R50: 145 x0,3_36 - p0 + p3 <= 181
 R51: - 59 x0,3_59 - p0 + p3 >= 0
 R52: 145 x0,3_59 - p0 + p3 <= 204
 R53: p0 - p4 <= -1
 R54: - 11 x0,4_11 - p0 + p4 >= 0
 R55: 145 x0,4_11 - p0 + p4 <= 156
 R56: - 16 x0,4_16 - p0 + p4 >= 0
 R57: 145 x0,4_16 - p0 + p4 <= 161
 R58: - 23 x0,4_23 - p0 + p4 >= 0
 R59: 145 x0,4_23 - p0 + p4 <= 168
 R60: - 36 x0,4_36 - p0 + p4 >= 0
 R61: 145 x0,4_36 - p0 + p4 <= 181
 R62: - 59 x0,4_59 - p0 + p4 >= 0
 R63: 145 x0,4_59 - p0 + p4 <= 204
 R64: p0 - p5 <= -1
 R65: - 11 x0,5_11 - p0 + p5 >= 0
 R66: 145 x0,5_11 - p0 + p5 <= 156
 R67: - 16 x0,5_16 - p0 + p5 >= 0
 R68: 145 x0,5_16 - p0 + p5 <= 161
 R69: - 23 x0,5_23 - p0 + p5 >= 0
 R70: 145 x0,5_23 - p0 + p5 <= 168
 R71: - 36 x0,5_36 - p0 + p5 >= 0
 R72: 145 x0,5_36 - p0 + p5 <= 181
 R73: - 59 x0,5_59 - p0 + p5 >= 0
 R74: 145 x0,5_59 - p0 + p5 <= 204
 R75: p1 - p2 <= -1
 R76: - 11 x1,2_11 - p1 + p2 >= 0
 R77: 145 x1,2_11 - p1 + p2 <= 156
 R78: - 16 x1,2_16 - p1 + p2 >= 0
 R79: 145 x1,2_16 - p1 + p2 <= 161
 R80: - 23 x1,2_23 - p1 + p2 >= 0
 R81: 145 x1,2_23 - p1 + p2 <= 168
 R82: - 36 x1,2_36 - p1 + p2 >= 0
 R83: 145 x1,2_36 - p1 + p2 <= 181
 R84: - 59 x1,2_59 - p1 + p2 >= 0
 R85: 145 x1,2_59 - p1 + p2 <= 204
 R86: p1 - p3 <= -1
 R87: - 11 x1,3_11 - p1 + p3 >= 0
 R88: 145 x1,3_11 - p1 + p3 <= 156
 R89: - 16 x1,3_16 - p1 + p3 >= 0
 R90: 145 x1,3_16 - p1 + p3 <= 161
 R91: - 23 x1,3_23 - p1 + p3 >= 0
 R92: 145 x1,3_23 - p1 + p3 <= 168
 R93: - 36 x1,3_36 - p1 + p3 >= 0
 R94: 145 x1,3_36 - p1 + p3 <= 181
 R95: - 59 x1,3_59 - p1 + p3 >= 0
 R96: 145 x1,3_59 - p1 + p3 <= 204
 R97: p1 - p4 <= -1
 R98: - 11 x1,4_11 - p1 + p4 >= 0
 R99: 145 x1,4_11 - p1 + p4 <= 156
 R100: - 16 x1,4_16 - p1 + p4 >= 0
 R101: 145 x1,4_16 - p1 + p4 <= 161
 R102: - 23 x1,4_23 - p1 + p4 >= 0
 R103: 145 x1,4_23 - p1 + p4 <= 168
 R104: - 36 x1,4_36 - p1 + p4 >= 0
 R105: 145 x1,4_36 - p1 + p4 <= 181
 R106: - 59 x1,4_59 - p1 + p4 >= 0
 R107: 145 x1,4_59 - p1 + p4 <= 204
 R108: p1 - p5 <= -1
 R109: - 11 x1,5_11 - p1 + p5 >= 0
 R110: 145 x1,5_11 - p1 + p5 <= 156
 R111: - 16 x1,5_16 - p1 + p5 >= 0
 R112: 145 x1,5_16 - p1 + p5 <= 161
 R113: - 23 x1,5_23 - p1 + p5 >= 0
 R114: 145 x1,5_23 - p1 + p5 <= 168
 R115: - 36 x1,5_36 - p1 + p5 >= 0
 R116: 145 x1,5_36 - p1 + p5 <= 181
 R117: - 59 x1,5_59 - p1 + p5 >= 0
 R118: 145 x1,5_59 - p1 + p5 <= 204
 R119: p2 - p3 <= -1
 R120: - 11 x2,3_11 - p2 + p3 >= 0
 R121: 145 x2,3_11 - p2 + p3 <= 156
 R122: - 16 x2,3_16 - p2 + p3 >= 0
 R123: 145 x2,3_16 - p2 + p3 <= 161
 R124: - 23 x2,3_23 - p2 + p3 >= 0
 R125: 145 x2,3_23 - p2 + p3 <= 168
 R126: - 36 x2,3_36 - p2 + p3 >= 0
 R127: 145 x2,3_36 - p2 + p3 <= 181
 R128: - 59 x2,3_59 - p2 + p3 >= 0
 R129: 145 x2,3_59 - p2 + p3 <= 204
 R130: p2 - p4 <= -1
 R131: - 11 x2,4_11 - p2 + p4 >= 0
 R132: 145 x2,4_11 - p2 + p4 <= 156
 R133: - 16 x2,4_16 - p2 + p4 >= 0
 R134: 145 x2,4_16 - p2 + p4 <= 161
 R135: - 23 x2,4_23 - p2 + p4 >= 0
 R136: 145 x2,4_23 - p2 + p4 <= 168
 R137: - 36 x2,4_36 - p2 + p4 >= 0
 R138: 145 x2,4_36 - p2 + p4 <= 181
 R139: - 59 x2,4_59 - p2 + p4 >= 0
 R140: 145 x2,4_59 - p2 + p4 <= 204
 R141: p2 - p5 <= -1
 R142: - 11 x2,5_11 - p2 + p5 >= 0
 R143: 145 x2,5_11 - p2 + p5 <= 156
 R144: - 16 x2,5_16 - p2 + p5 >= 0
 R145: 145 x2,5_16 - p2 + p5 <= 161
 R146: - 23 x2,5_23 - p2 + p5 >= 0
 R147: 145 x2,5_23 - p2 + p5 <= 168
 R148: - 36 x2,5_36 - p2 + p5 >= 0
 R149: 145 x2,5_36 - p2 + p5 <= 181
 R150: - 59 x2,5_59 - p2 + p5 >= 0
 R151: 145 x2,5_59 - p2 + p5 <= 204
 R152: p3 - p4 <= -1
 R153: - 11 x3,4_11 - p3 + p4 >= 0
 R154: 145 x3,4_11 - p3 + p4 <= 156
 R155: - 16 x3,4_16 - p3 + p4 >= 0
 R156: 145 x3,4_16 - p3 + p4 <= 161
 R157: - 23 x3,4_23 - p3 + p4 >= 0
 R158: 145 x3,4_23 - p3 + p4 <= 168
 R159: - 36 x3,4_36 - p3 + p4 >= 0
 R160: 145 x3,4_36 - p3 + p4 <= 181
 R161: - 59 x3,4_59 - p3 + p4 >= 0
 R162: 145 x3,4_59 - p3 + p4 <= 204
 R163: p3 - p5 <= -1
 R164: - 11 x3,5_11 - p3 + p5 >= 0
 R165: 145 x3,5_11 - p3 + p5 <= 156
 R166: - 16 x3,5_16 - p3 + p5 >= 0
 R167: 145 x3,5_16 - p3 + p5 <= 161
 R168: - 23 x3,5_23 - p3 + p5 >= 0
 R169: 145 x3,5_23 - p3 + p5 <= 168
 R170: - 36 x3,5_36 - p3 + p5 >= 0
 R171: 145 x3,5_36 - p3 + p5 <= 181
 R172: - 59 x3,5_59 - p3 + p5 >= 0
 R173: 145 x3,5_59 - p3 + p5 <= 204
 R174: p4 - p5 <= -1
 R175: - 11 x4,5_11 - p4 + p5 >= 0
 R176: 145 x4,5_11 - p4 + p5 <= 156
 R177: - 16 x4,5_16 - p4 + p5 >= 0
 R178: 145 x4,5_16 - p4 + p5 <= 161
 R179: - 23 x4,5_23 - p4 + p5 >= 0
 R180: 145 x4,5_23 - p4 + p5 <= 168
 R181: - 36 x4,5_36 - p4 + p5 >= 0
 R182: 145 x4,5_36 - p4 + p5 <= 181
 R183: - 59 x4,5_59 - p4 + p5 >= 0
 R184: 145 x4,5_59 - p4 + p5 <= 204
 R185: z0 - z1 >= 0
 R186: z1 - z2 >= 0
 R187: z2 - z3 >= 0
 R188: z3 - z4 >= 0
 R189: z4 - z5 >= 0
Bounds
Binaries
 x0,1_11 x0,1_16 x0,1_23 x0,1_36 x0,1_59 x0,2_11 x0,2_16 x0,2_23 x0,2_36
 x0,2_59 x0,3_11 x0,3_16 x0,3_23 x0,3_36 x0,3_59 x0,4_11 x0,4_16 x0,4_23
 x0,4_36 x0,4_59 x0,5_11 x0,5_16 x0,5_23 x0,5_36 x0,5_59 x1,2_11 x1,2_16
 x1,2_23 x1,2_36 x1,2_59 x1,3_11 x1,3_16 x1,3_23 x1,3_36 x1,3_59 x1,4_11
 x1,4_16 x1,4_23 x1,4_36 x1,4_59 x1,5_11 x1,5_16 x1,5_23 x1,5_36 x1,5_59
 x2,3_11 x2,3_16 x2,3_23 x2,3_36 x2,3_59 x2,4_11 x2,4_16 x2,4_23 x2,4_36
 x2,4_59 x2,5_11 x2,5_16 x2,5_23 x2,5_36 x2,5_59 x3,4_11 x3,4_16 x3,4_23
 x3,4_36 x3,4_59 x3,5_11 x3,5_16 x3,5_23 x3,5_36 x3,5_59 x4,5_11 x4,5_16
 x4,5_23 x4,5_36 x4,5_59 z0 z1 z2 z3 z4 z5
Generals
 p0 p1 p2 p3 p4 p5
End
