logs/miss/ip/miss-05-30-2.sol
# Objective value = 5
x0,1_11 0
x0,1_16 0
x0,1_23 1
x0,1_36 0
x0,1_59 0
x0,2_11 0
x0,2_16 0
x0,2_23 0
x0,2_36 0
x0,2_59 0
x0,3_11 0
x0,3_16 0
x0,3_23 0
x0,3_36 0
x0,3_59 0
x0,4_11 0
x0,4_16 0
x0,4_23 0
x0,4_36 0
x0,4_59 1
x0,5_11 0
x0,5_16 0
x0,5_23 0
x0,5_36 0
x0,5_59 0
x1,2_11 1
x1,2_16 0
x1,2_23 0
x1,2_36 0
x1,2_59 0
x1,3_11 0
x1,3_16 1
x1,3_23 0
x1,3_36 0
x1,3_59 0
x1,4_11 0
x1,4_16 0
x1,4_23 0
x1,4_36 1
x1,4_59 0
x1,5_11 0
x1,5_16 0
x1,5_23 0
x1,5_36 0
x1,5_59 0
x2,3_11 0
x2,3_16 0
x2,3_23 0
x2,3_36 0
x2,3_59 0
x2,4_11 0
x2,4_16 0
x2,4_23 0
x2,4_36 0
x2,4_59 0
x2,5_11 0
x2,5_16 0
x2,5_23 0
x2,5_36 0
x2,5_59 0
x3,4_11 0
x3,4_16 0
x3,4_23 0
x3,4_36 0
x3,4_59 0
x3,5_11 0
x3,5_16 0
x3,5_23 0
x3,5_36 0
x3,5_59 0
x4,5_11 0
x4,5_16 0
x4,5_23 0
x4,5_36 0
x4,5_59 0
z0 1
z1 1
z2 1
z3 1
z4 1
z5 0
p0 0
p1 23
p2 34
p3 39
p4 59
p5 156
